SPARKNaCl/why3-z3/sparknacl-utils.adb_344_47_division_check_1.smt2
;; produced by z3_gnatprove.drv ;;
(set-info :smt-lib-version 2.5)
(set-info :source |VC generated by SPARK 2014|)
(set-info :category industrial)
(set-info :status unknown)
;;; generated by SMT-LIB2 driver
;;; SMT-LIB2 driver: bit-vectors, common part
;;; SMT-LIB2: integer arithmetic
(define-fun __cdiv ((x Int) (y Int)) Int (ite (>= x 0) (div x y) (- (div (- x) y))))
(define-fun __cmod ((x Int) (y Int)) Int (ite (>= x 0) (mod x y) (- (mod (- x) y))))
(declare-datatypes ()
  ((int__ref (int__refqtmk (int__content Int)))))

(declare-sort gf32_any_limb 0)

;; "gf32_any_limb'int"
(declare-fun gf32_any_limbqtint (gf32_any_limb) Int)

;; "gf32_any_limb'axiom"
(assert
  (forall ((i gf32_any_limb))
    (and
      (<= (- 65536) (gf32_any_limbqtint i))
      (<= (gf32_any_limbqtint i) 132051011))))

;; "in_range"
(define-fun in_range ((x Int)) Bool
  (and (<= (- 65536) x) (<= x 132051011)))

;; "to_rep"
(define-fun to_rep ((x gf32_any_limb)) Int
  (gf32_any_limbqtint x))

;; "of_rep"
(declare-fun of_rep (Int) gf32_any_limb)

;; "inversion_axiom"
(assert
  (forall ((x gf32_any_limb))
    (! (= (of_rep (to_rep x)) x) :pattern ((to_rep x)) )))

;; "range_axiom"
(assert
  (forall ((x gf32_any_limb))
    (! (in_range (to_rep x)) :pattern ((to_rep x)) )))

;; "coerce_axiom"
(assert
  (forall ((x Int))
    (! (=> (in_range x) (= (to_rep (of_rep x)) x)) :pattern ((to_rep
                                                               (of_rep x))) )))

(declare-sort map1 0)

;; "has_bounds"
(declare-fun has_bounds (map1
  Int
  Int) Bool)

;; "get"
(declare-fun get (map1
  Int) gf32_any_limb)

(declare-const x map1)

(declare-sort byte 0)

;; "to_rep"
(declare-fun to_rep1 (byte) (_ BitVec 8))

;; "of_rep"
(declare-fun of_rep1 ((_ BitVec 8)) byte)

;; "inversion_axiom"
(assert
  (forall ((x1 byte))
    (! (= (of_rep1 (to_rep1 x1)) x1) :pattern ((to_rep1 x1)) )))

;; "range_axiom"
(assert true)

;; "coerce_axiom"
(assert
  (forall ((x1 (_ BitVec 8)))
    (! (= (to_rep1 (of_rep1 x1)) x1) :pattern ((to_rep1 (of_rep1 x1))) )))

(declare-sort map2 0)

(declare-datatypes ()
  ((map__ref (map__refqtmk (map__content map2)))))

;; "has_bounds"
(declare-fun has_bounds1 (map2
  Int
  Int) Bool)

;; "get"
(declare-fun get1 (map2
  Int) byte)

(declare-const zero_bytes_32 map2)

;; "in_range"
(define-fun in_range1 ((x1 Int)) Bool
  (and (<= 0 x1) (<= x1 65535)))

;; "dynamic_invariant"
(define-fun dynamic_invariant ((temp___expr_547 map1) (temp___is_init_543 Bool) (temp___skip_constant_544 Bool) (temp___do_toplevel_545 Bool) (temp___do_typ_inv_546 Bool)) Bool
  (and
    (=>
      (= temp___is_init_543 true)
      (=>
        (= temp___do_toplevel_545 true)
        (forall ((i Int))
          (=>
            (and (<= 0 i) (<= i 15))
            (in_range1 (to_rep (get temp___expr_547 i)))))))
    (has_bounds temp___expr_547 0 15)))

;; "sparknacl__zero_bytes_32__aggregate_def"
(declare-fun sparknacl__zero_bytes_32__aggregate_def ((_ BitVec 8)) map2)

;; "zero_bytes_32__def_axiom"
(assert
  (= zero_bytes_32 (let ((temp___218 (sparknacl__zero_bytes_32__aggregate_def
                                       #x00)))
                     (let ((temp___219 temp___218)) temp___219))))

;; "def_axiom"
(assert
  (forall ((temp___214 (_ BitVec 8)))
    (let ((temp___215 (sparknacl__zero_bytes_32__aggregate_def temp___214)))
      (and
        (has_bounds1 temp___215 0 31)
        (forall ((temp___216 Int))
          (! (=>
               (and (<= 0 temp___216) (<= temp___216 31))
               (= (to_rep1 (get1 temp___215 temp___216)) temp___214)) :pattern (
          (get1
            temp___215
            temp___216)) ))))))

;; "Assume"
(assert (has_bounds1 zero_bytes_32 0 31))

(declare-const temp___1160 map2)

;; "H"
(assert (has_bounds1 temp___1160 0 31))

;; "H"
(assert
  (forall ((temp___217 Int))
    (! (=>
         (and (<= 0 temp___217) (<= temp___217 31))
         (= (to_rep1 (get1 temp___1160 temp___217)) #x00)) :pattern (
    (get1
      temp___1160
      temp___217)) )))

;; "H"
(assert (= temp___1160 (sparknacl__zero_bytes_32__aggregate_def #x00)))

;; "sparknacl__zero_bytes_32__aggregate_def'result'unused"
(define-fun sparknacl__zero_bytes_32__aggregate_defqtresultqtunused () map2
  temp___1160)

;; "Assume"
(assert (= temp___1160 zero_bytes_32))

;; "Assume"
(assert (dynamic_invariant x true false true true))

(declare-const result__ map2)

;; "result__'unused"
(define-fun result__qtunused () map__ref
  (map__refqtmk result__))

;; "H"
(assert (= result__ zero_bytes_32))

;; "Assume"
(assert (has_bounds1 result__ 0 31))

(declare-const i Int)

;; "i'unused"
(define-fun iqtunused () int__ref
  (int__refqtmk i))

;; "H"
(assert (= i 0))

;; "int__content'result'unused"
(define-fun int__contentqtresultqtunused () Int
  i)

;; "o"
(define-fun o () Bool
  (ite (<= i 15) true false))

;; "infix <='result'unused"
(define-fun infix_lseqqtresultqtunused () Bool
  o)

;; "int__content'result'unused"
(define-fun int__contentqtresultqtunused1 () Int
  i)

;; "o"
(define-fun o1 () Bool
  (ite (<= 0 i) true false))

;; "infix <='result'unused"
(define-fun infix_lseqqtresultqtunused1 () Bool
  o1)

;; "o"
(define-fun o2 () Bool
  (and o1 o))

;; "andb'result'unused"
(define-fun andbqtresultqtunused () Bool
  o2)

;; "H"
(assert (= o2 true))

;; "temp___loop_entry_1153'unused"
(define-fun temp___loop_entry_1153qtunused () map2
  result__)

;; "map__content'result'unused"
(define-fun map__contentqtresultqtunused () map2
  result__)

(declare-const result__1 map2)

(declare-const i1 Int)

;; "i'unused"
(define-fun iqtunused1 () int__ref
  (int__refqtmk i1))

;; "result__'unused"
(define-fun result__qtunused1 () map__ref
  (map__refqtmk result__1))

;; "Assume"
(assert
  (= (and (ite (has_bounds1 result__1 0 31) true false) (ite (and
                                                               (<= 0 
                                                               i1)
                                                               (<= i1 15))
                                                          true
                                                          false)) true))

;; "int__content'result'unused"
(define-fun int__contentqtresultqtunused2 () Int
  i1)

;; "o"
(define-fun o3 () gf32_any_limb
  (get x i1))

;; "get'result'unused"
(define-fun getqtresultqtunused () gf32_any_limb
  o3)

(declare-const o4 Int)

;; "Ensures"
(assert (= (to_rep o3) o4))

;; "to_rep'result'unused"
(define-fun to_repqtresultqtunused () Int
  o4)

;; Goal "def'vc"
;; File "sparknacl-utils.adb", line 268, characters 0-0
(assert
  (not (not (= 256 0))))

(check-sat)
